
Gurobi 10.0.2 (win64) logging started Thu Jul  6 13:29:08 2023

Set parameter LogFile to value "Outputs/Logfiles/model_moo(Jul 06,1329).log"
Gurobi Optimizer version 10.0.2 build v10.0.2rc0 (win64)

CPU model: Intel(R) Core(TM) i5-8265U CPU @ 1.60GHz, instruction set [SSE2|AVX|AVX2]
Thread count: 4 physical cores, 8 logical processors, using up to 8 threads

Optimize a model with 12101 rows, 8060 columns and 20060 nonzeros
Model fingerprint: 0xcf5c34e6
Variable types: 6000 continuous, 2060 integer (2060 binary)
Coefficient statistics:
  Matrix range     [1e+00, 2e+05]
  Objective range  [3e-03, 1e+05]
  Bounds range     [1e+00, 1e+00]
  RHS range        [2e+00, 2e+02]

---------------------------------------------------------------------------
Multi-objectives: starting optimization with 2 objectives ... 
---------------------------------------------------------------------------

Multi-objectives: applying initial presolve ...
---------------------------------------------------------------------------

Presolve removed 10000 rows and 4000 columns
Presolve time: 0.06s
Presolved: 2101 rows and 4060 columns
---------------------------------------------------------------------------

Multi-objectives: optimize objective 1 (objective_re_1) ...
---------------------------------------------------------------------------

Found heuristic solution: objective -283.4467154
Presolve removed 2101 rows and 4060 columns
Presolve time: 0.02s
Presolve: All rows and columns removed

Explored 0 nodes (0 simplex iterations) in 0.15 seconds (0.01 work units)
Thread count was 1 (of 8 available processors)

Solution count 1: -283.447 
No other solutions better than -283.447

Optimal solution found (tolerance 1.00e-04)
Best objective -2.834467153735e+02, best bound -2.834467153735e+02, gap 0.0000%
---------------------------------------------------------------------------

Multi-objectives: optimize objective 2 (objective_cost_2) ...
---------------------------------------------------------------------------


Loaded user MIP start with objective 0


Explored 0 nodes (0 simplex iterations) in 0.18 seconds (0.01 work units)
Thread count was 1 (of 8 available processors)

Solution count 1: 0 

Optimal solution found (tolerance 1.00e-04)
Best objective 0.000000000000e+00, best bound 0.000000000000e+00, gap 0.0000%

---------------------------------------------------------------------------
Multi-objectives: solved in 0.21 seconds (0.01 work units), solution count 1


    Variable            X 
-------------------------
cover[o74,s18]            1 
cover[o74,s19]            1 
cover[o74,s20]            1 
cover[o98,s18]            1 
cover[o98,s19]            1 
cover[o98,s20]            1 
cover[o53,s18]            1 
cover[o53,s19]            1 
cover[o53,s20]            1 
cover[o178,s18]            1 
cover[o178,s19]            1 
cover[o178,s20]            1 
cover[o203,s18]            1 
cover[o203,s19]            1 
cover[o203,s20]            1 
cover[o127,s18]            1 
cover[o127,s19]            1 
cover[o127,s20]            1 
cover[o172,s18]            1 
cover[o172,s19]            1 
cover[o172,s20]            1 
cover[o51,s18]            1 
cover[o51,s19]            1 
cover[o51,s20]            1 
cover[o7,s18]            1 
cover[o7,s19]            1 
cover[o7,s20]            1 
cover[o30,s18]            1 
cover[o30,s19]            1 
cover[o30,s20]            1 
cover[o221,s18]            1 
cover[o221,s19]            1 
cover[o221,s20]            1 
cover[o64,s18]            1 
cover[o64,s19]            1 
cover[o64,s20]            1 
cover[o25,s18]            1 
cover[o25,s19]            1 
cover[o25,s20]            1 
cover[o94,s18]            1 
cover[o94,s19]            1 
cover[o94,s20]            1 
cover[o119,s18]            1 
cover[o119,s19]            1 
cover[o119,s20]            1 
cover[o148,s18]            1 
cover[o148,s19]            1 
cover[o148,s20]            1 
cover[o208,s18]            1 
cover[o208,s19]            1 
cover[o208,s20]            1 
cover[o86,s18]            1 
cover[o86,s19]            1 
cover[o86,s20]            1 
cover[o93,s18]            1 
cover[o93,s19]            1 
cover[o93,s20]            1 
cover[o108,s18]            1 
cover[o108,s19]            1 
cover[o108,s20]            1 
cover[o131,s18]            1 
cover[o131,s19]            1 
cover[o131,s20]            1 
cover[o6,s18]            1 
cover[o6,s19]            1 
cover[o6,s20]            1 
cover[o10,s18]            1 
cover[o10,s19]            1 
cover[o10,s20]            1 
cover[o41,s18]            1 
cover[o41,s19]            1 
cover[o41,s20]            1 
cover[o144,s18]            1 
cover[o144,s19]            1 
cover[o144,s20]            1 
cover[o169,s18]            1 
cover[o169,s19]            1 
cover[o169,s20]            1 
cover[o185,s18]            1 
cover[o185,s19]            1 
cover[o185,s20]            1 
cover[o87,s18]            1 
cover[o87,s19]            1 
cover[o87,s20]            1 
cover[o168,s18]            1 
cover[o168,s19]            1 
cover[o168,s20]            1 
cover[o24,s18]            1 
cover[o24,s19]            1 
cover[o24,s20]            1 
cover[o190,s18]            1 
cover[o190,s19]            1 
cover[o190,s20]            1 
cover[o97,s18]            1 
cover[o97,s19]            1 
cover[o97,s20]            1 
cover[o162,s18]            1 
cover[o162,s19]            1 
cover[o162,s20]            1 
cover[o106,s18]            1 
cover[o106,s19]            1 
cover[o106,s20]            1 
cover[o157,s18]            1 
cover[o157,s19]            1 
cover[o157,s20]            1 
cover[o175,s18]            1 
cover[o175,s19]            1 
cover[o175,s20]            1 
cover[o136,s18]            1 
cover[o136,s19]            1 
cover[o136,s20]            1 
cover[o145,s18]            1 
cover[o145,s19]            1 
cover[o145,s20]            1 
cover[o3,s18]            1 
cover[o3,s19]            1 
cover[o3,s20]            1 
cover[o28,s18]            1 
cover[o28,s19]            1 
cover[o28,s20]            1 
cover[o45,s18]            1 
cover[o45,s19]            1 
cover[o45,s20]            1 
cover[o27,s18]            1 
cover[o27,s19]            1 
cover[o27,s20]            1 
cover[o219,s18]            1 
cover[o219,s19]            1 
cover[o219,s20]            1 
cover[o9,s18]            1 
cover[o9,s19]            1 
cover[o9,s20]            1 
cover[o212,s18]            1 
cover[o212,s19]            1 
cover[o212,s20]            1 
cover[o139,s18]            1 
cover[o139,s19]            1 
cover[o139,s20]            1 
cover[o214,s18]            1 
cover[o214,s19]            1 
cover[o214,s20]            1 
cover[o113,s18]            1 
cover[o113,s19]            1 
cover[o113,s20]            1 
cover[o160,s18]            1 
cover[o160,s19]            1 
cover[o160,s20]            1 
cover[o191,s18]            1 
cover[o191,s19]            1 
cover[o191,s20]            1 
cover[o104,s18]            1 
cover[o104,s19]            1 
cover[o104,s20]            1 
cover[o184,s18]            1 
cover[o184,s19]            1 
cover[o184,s20]            1 
cover[o37,s18]            1 
cover[o37,s19]            1 
cover[o37,s20]            1 
cover[o165,s18]            1 
cover[o165,s19]            1 
cover[o165,s20]            1 
cover[o83,s18]            1 
cover[o83,s19]            1 
cover[o83,s20]            1 
cover[o114,s18]            1 
cover[o114,s19]            1 
cover[o114,s20]            1 
cover[o155,s18]            1 
cover[o155,s19]            1 
cover[o155,s20]            1 
cover[o91,s18]            1 
cover[o91,s19]            1 
cover[o91,s20]            1 
cover[o138,s18]            1 
cover[o138,s19]            1 
cover[o138,s20]            1 
cover[o183,s18]            1 
cover[o183,s19]            1 
cover[o183,s20]            1 
cover[o11,s18]            1 
cover[o11,s19]            1 
cover[o11,s20]            1 
cover[o181,s18]            1 
cover[o181,s19]            1 
cover[o181,s20]            1 
cover[o159,s18]            1 
cover[o159,s19]            1 
cover[o159,s20]            1 
cover[o48,s18]            1 
cover[o48,s19]            1 
cover[o48,s20]            1 
cover[o129,s18]            1 
cover[o129,s19]            1 
cover[o129,s20]            1 
cover[o158,s18]            1 
cover[o158,s19]            1 
cover[o158,s20]            1 
cover[o117,s18]            1 
cover[o117,s19]            1 
cover[o117,s20]            1 
cover[o153,s18]            1 
cover[o153,s19]            1 
cover[o153,s20]            1 
cover[o101,s18]            1 
cover[o101,s19]            1 
cover[o101,s20]            1 
cover[o44,s18]            1 
cover[o44,s19]            1 
cover[o44,s20]            1 
cover[o109,s18]            1 
cover[o109,s19]            1 
cover[o109,s20]            1 
cover[o59,s18]            1 
cover[o59,s19]            1 
cover[o59,s20]            1 
cover[o121,s18]            1 
cover[o121,s19]            1 
cover[o121,s20]            1 
cover[o13,s18]            1 
cover[o13,s19]            1 
cover[o13,s20]            1 
cover[o128,s18]            1 
cover[o128,s19]            1 
cover[o128,s20]            1 
cover[o90,s18]            1 
cover[o90,s19]            1 
cover[o90,s20]            1 
cover[o79,s18]            1 
cover[o79,s19]            1 
cover[o79,s20]            1 
cover[o161,s18]            1 
cover[o161,s19]            1 
cover[o161,s20]            1 
cover[o163,s18]            1 
cover[o163,s19]            1 
cover[o163,s20]            1 
cover[o130,s18]            1 
cover[o130,s19]            1 
cover[o130,s20]            1 
cover[o107,s18]            1 
cover[o107,s19]            1 
cover[o107,s20]            1 
cover[o42,s18]            1 
cover[o42,s19]            1 
cover[o42,s20]            1 
cover[o31,s18]            1 
cover[o31,s19]            1 
cover[o31,s20]            1 
cover[o19,s18]            1 
cover[o19,s19]            1 
cover[o19,s20]            1 
cover[o22,s18]            1 
cover[o22,s19]            1 
cover[o22,s20]            1 
cover[o187,s18]            1 
cover[o187,s19]            1 
cover[o187,s20]            1 
cover[o84,s18]            1 
cover[o84,s19]            1 
cover[o84,s20]            1 
cover[o132,s18]            1 
cover[o132,s19]            1 
cover[o132,s20]            1 
cover[o198,s18]            1 
cover[o198,s19]            1 
cover[o198,s20]            1 
cover[o49,s18]            1 
cover[o49,s19]            1 
cover[o49,s20]            1 
cover[o116,s18]            1 
cover[o116,s19]            1 
cover[o116,s20]            1 
cover[o124,s18]            1 
cover[o124,s19]            1 
cover[o124,s20]            1 
cover[o134,s18]            1 
cover[o134,s19]            1 
cover[o134,s20]            1 
cover[o82,s18]            1 
cover[o82,s19]            1 
cover[o82,s20]            1 
cover[o220,s18]            1 
cover[o220,s19]            1 
cover[o220,s20]            1 
cover[o207,s18]            1 
cover[o207,s19]            1 
cover[o207,s20]            1 
cover[o43,s18]            1 
cover[o43,s19]            1 
cover[o43,s20]            1 
cover[o192,s18]            1 
cover[o192,s19]            1 
cover[o192,s20]            1 
cover[o174,s18]            1 
cover[o174,s19]            1 
cover[o174,s20]            1 
cover[o78,s18]            1 
cover[o78,s19]            1 
cover[o78,s20]            1 
